NAME : G-n10-k3
CAPACITY : 428
NODE_COORD_SECTION
1   342   209
2   366   293
3   281   483
4   303   178
5   443   113
6   495   375
7   336   153
8   319   352
9   324   133
10   335   405
DEMAND_SECTION
1   0
2   39
3   92
4   24
5   57
6   37
7   66
8   19
9   28
10   75
DEPOT_SECTION
    1
    -1
EOF